n=10;
hearts=63;
clubs=31;
spades=17;
diamonds=84;
blocked=3;
m=array2d(1..n, 1..n,[
	_,_,_,_,2,_,5,_,_,_,
	_,_,2,_,_,4,3,_,_,_,
	_,_,_,_,1,_,_,2,_,_,
	_,_,_,2,_,2,_,_,_,_,
	_,_,5,_,_,_,_,_,_,_,
	1,_,_,_,1,3,_,_,1,_,
	_,_,_,_,_,3,_,3,_,_,
	_,_,_,_,_,_,_,_,_,_,
	_,_,_,_,_,_,_,_,_,_,
	_,_,_,_,_,_,3,_,5,3
]);
